(set-option :print-success false)
(set-logic QF_UF)
(declare-sort x51 0)
(declare-sort x148 0)
(declare-fun x36 (x148 x148) x148)
(declare-fun x112 (x148 x148) x148)
(declare-fun x119 () x148)
(declare-fun x143 () x148)
(declare-fun x103 () x148)
(declare-fun x129 () x148)
(declare-fun x43 () x148)
(assert (or (or (or (or (= x129 (x112 x129 (x112 x129 x129))) (= x143 (x112 x143 (x112 x143 x143)))) (= (x112 x43 (x112 x43 x43)) x43)) (= (x112 x119 (x112 x119 x119)) x119)) (= x103 (x112 x103 (x112 x103 x103)))))
(assert (let ((x113 (x112 x43 x143)) (x47 (x112 x119 x43)) (x96 (x112 x143 x43)) (x23 (x112 x119 x143)) (x67 (x112 x119 x103)) (x73 (x112 x129 x103)) (x130 (x112 x143 x103)) (x100 (x112 x43 x43)) (x50 (x112 x103 x129)) (x62 (x112 x43 x129)) (x10 (x112 x129 x119)) (x111 (x112 x43 x119)) (x17 (x112 x119 x119)) (x98 (x112 x103 x143)) (x33 (x112 x119 x129)) (x14 (x112 x103 x119)) (x94 (x112 x43 x103)) (x30 (x112 x129 x129)) (x12 (x112 x143 x129)) (x26 (x112 x143 x119)) (x5 (x112 x103 x43)) (x106 (x112 x129 x43)) (x48 (x112 x143 x143)) (x155 (x112 x129 x143)) (x18 (x112 x103 x103))) (and (and (and (and (and (and (and (and (or (or (or (= x30 x43) (or (= x30 x143) (= x30 x129))) (= x119 x30)) (= x30 x103)) (or (= x155 x103) (or (= x119 x155) (or (= x155 x43) (or (= x155 x129) (= x143 x155)))))) (or (or (or (= x106 x43) (or (= x106 x143) (= x129 x106))) (= x119 x106)) (= x103 x106))) (or (or (or (= x43 x10) (or (= x10 x129) (= x10 x143))) (= x10 x119)) (= x10 x103))) (or (= x73 x103) (or (or (= x43 x73) (or (= x143 x73) (= x129 x73))) (= x73 x119)))) (and (or (= x130 x103) (or (= x119 x130) (or (or (= x130 x143) (= x130 x129)) (= x43 x130)))) (and (and (or (or (= x119 x96) (or (= x43 x96) (or (= x96 x143) (= x129 x96)))) (= x103 x96)) (and (or (= x103 x48) (or (= x119 x48) (or (= x43 x48) (or (= x48 x129) (= x48 x143))))) (or (= x12 x103) (or (= x12 x119) (or (= x12 x43) (or (= x12 x129) (= x143 x12))))))) (or (or (= x119 x26) (or (= x43 x26) (or (= x143 x26) (= x129 x26)))) (= x26 x103))))) (and (or (or (or (= x43 x94) (or (= x129 x94) (= x94 x143))) (= x94 x119)) (= x103 x94)) (and (or (= x111 x103) (or (= x119 x111) (or (= x111 x43) (or (= x143 x111) (= x129 x111))))) (and (or (or (= x119 x100) (or (or (= x100 x143) (= x129 x100)) (= x100 x43))) (= x100 x103)) (and (or (or (or (or (= x113 x143) (= x113 x129)) (= x43 x113)) (= x113 x119)) (= x103 x113)) (or (= x103 x62) (or (or (= x62 x43) (or (= x143 x62) (= x62 x129))) (= x119 x62)))))))) (and (and (and (and (or (or (= x119 x23) (or (= x43 x23) (or (= x23 x129) (= x143 x23)))) (= x23 x103)) (or (or (= x119 x33) (or (= x33 x43) (or (= x33 x129) (= x33 x143)))) (= x103 x33))) (or (= x47 x103) (or (= x47 x119) (or (or (= x47 x143) (= x129 x47)) (= x43 x47))))) (or (= x17 x103) (or (or (or (= x17 x143) (= x17 x129)) (= x43 x17)) (= x17 x119)))) (or (= x67 x103) (or (or (= x43 x67) (or (= x67 x129) (= x143 x67))) (= x119 x67))))) (and (and (and (or (or (or (= x43 x5) (or (= x143 x5) (= x129 x5))) (= x119 x5)) (= x103 x5)) (and (or (or (= x119 x50) (or (= x50 x43) (or (= x50 x129) (= x50 x143)))) (= x103 x50)) (or (or (= x119 x98) (or (or (= x98 x129) (= x143 x98)) (= x43 x98))) (= x103 x98)))) (or (= x14 x103) (or (= x119 x14) (or (= x14 x43) (or (= x143 x14) (= x129 x14)))))) (or (= x18 x103) (or (or (or (= x143 x18) (= x18 x129)) (= x18 x43)) (= x119 x18)))))))
(assert (and (and (and (not (= x43 x119)) (and (not (= x143 x103)) (and (not (= x119 x143)) (and (not (= x43 x143)) (and (and (and (not (= x129 x143)) (not (= x43 x129))) (not (= x129 x119))) (not (= x129 x103))))))) (not (= x103 x43))) (not (= x103 x119))))
(assert (let ((x48 (x112 x143 x143)) (x111 (x112 x119 x43)) (x155 (x112 x143 x129)) (x73 (x112 x103 x129)) (x12 (x112 x129 x143)) (x100 (x112 x43 x43)) (x50 (x112 x129 x103)) (x47 (x112 x43 x119)) (x62 (x112 x129 x43)) (x26 (x112 x119 x143)) (x18 (x112 x103 x103)) (x14 (x112 x119 x103)) (x113 (x112 x143 x43)) (x106 (x112 x43 x129)) (x17 (x112 x119 x119)) (x94 (x112 x103 x43)) (x33 (x112 x129 x119)) (x30 (x112 x129 x129)) (x96 (x112 x43 x143)) (x98 (x112 x143 x103)) (x10 (x112 x119 x129)) (x67 (x112 x103 x119)) (x130 (x112 x103 x143)) (x23 (x112 x143 x119)) (x5 (x112 x43 x103))) (and (or (= (x112 x18 x18) x103) (or (or (or (= (x112 x50 x50) x129) (= (x112 x98 x98) x143)) (= x43 (x112 x5 x5))) (= (x112 x14 x14) x119))) (and (and (and (or (= (x112 x130 x130) x103) (or (= (x112 x26 x26) x119) (or (= x43 (x112 x96 x96)) (or (= x143 (x112 x48 x48)) (= (x112 x12 x12) x129))))) (or (= (x112 x73 x73) x103) (or (= x119 (x112 x10 x10)) (or (= (x112 x106 x106) x43) (or (= x129 (x112 x30 x30)) (= (x112 x155 x155) x143)))))) (or (= (x112 x94 x94) x103) (or (= x119 (x112 x111 x111)) (or (or (= (x112 x113 x113) x143) (= x129 (x112 x62 x62))) (= x43 (x112 x100 x100)))))) (or (or (= (x112 x17 x17) x119) (or (= (x112 x47 x47) x43) (or (= x129 (x112 x33 x33)) (= (x112 x23 x23) x143)))) (= (x112 x67 x67) x103))))))
(assert (let ((x90 (x112 x143 x143)) (x144 (x112 x119 x143)) (x80 (x112 x119 x43)) (x74 (x112 x129 x143)) (x115 (x112 x129 x129)) (x39 (x112 x103 x119)) (x71 (x112 x43 x129)) (x139 (x112 x143 x119)) (x114 (x112 x43 x119)) (x87 (x112 x103 x129)) (x3 (x112 x43 x103)) (x35 (x112 x143 x103)) (x124 (x112 x103 x43)) (x53 (x112 x43 x43)) (x72 (x112 x103 x103)) (x158 (x112 x119 x103)) (x128 (x112 x129 x43)) (x37 (x112 x143 x43)) (x153 (x112 x119 x119)) (x7 (x112 x43 x143)) (x32 (x112 x129 x119)) (x109 (x112 x143 x129)) (x132 (x112 x103 x143)) (x126 (x112 x129 x103)) (x20 (x112 x119 x129))) (let ((x73 (not (= x129 x71))) (x100 (not (= x129 x139))) (x156 (not (= x87 x103))) (x82 (not (= x143 x37))) (x78 (not (= x109 x143))) (x21 (not (= x43 x124))) (x155 (not (= x109 x129))) (x5 (not (= x129 x39))) (x111 (not (= x80 x129))) (x75 (not (= x32 x119))) (x55 (not (= x90 x143))) (x88 (not (= x43 x72))) (x142 (not (= x124 x119))) (x29 (not (= x143 x126))) (x50 (not (= x124 x129))) (x123 (not (= x114 x143))) (x56 (not (= x143 x20))) (x98 (not (= x3 x129))) (x28 (not (= x37 x43))) (x45 (not (= x143 x115))) (x77 (not (= x43 x126))) (x131 (not (= x43 x80))) (x27 (not (= x128 x119))) (x58 (not (= x90 x119))) (x38 (not (= x39 x103))) (x113 (not (= x144 x129))) (x133 (not (= x143 x153))) (x16 (not (= x71 x43))) (x25 (not (= x53 x43))) (x125 (not (= x80 x119))) (x135 (not (= x115 x103))) (x96 (not (= x37 x129))) (x30 (not (= x115 x129))) (x23 (not (= x129 x87))) (x60 (not (= x144 x43))) (x85 (not (= x43 x35))) (x104 (not (= x43 x3))) (x9 (not (= x143 x80))) (x141 (not (= x115 x43))) (x57 (not (= x90 x103))) (x70 (not (= x109 x43))) (x11 (not (= x115 x119))) (x62 (not (= x129 x32))) (x136 (not (= x32 x43))) (x68 (not (= x119 x132))) (x22 (not (= x20 x103))) (x26 (not (= x53 x129))) (x120 (not (= x119 x35))) (x59 (not (= x132 x143))) (x92 (not (= x72 x143))) (x61 (not (= x43 x74))) (x108 (not (= x158 x119))) (x84 (not (= x126 x103))) (x147 (not (= x37 x119))) (x18 (not (= x129 x72))) (x137 (not (= x158 x43))) (x69 (not (= x128 x103))) (x97 (not (= x43 x153))) (x122 (not (= x144 x143))) (x49 (not (= x43 x7))) (x159 (not (= x143 x87))) (x102 (not (= x143 x139))) (x110 (not (= x119 x7))) (x66 (not (= x103 x109))) (x152 (not (= x43 x87))) (x93 (not (= x7 x143))) (x17 (not (= x129 x132))) (x24 (not (= x32 x103))) (x33 (not (= x129 x153))) (x101 (not (= x43 x90))) (x107 (not (= x103 x35))) (x95 (not (= x119 x53))) (x15 (not (= x103 x37))) (x134 (not (= x7 x103))) (x41 (not (= x144 x103))) (x121 (not (= x103 x72))) (x105 (not (= x103 x74))) (x79 (not (= x119 x72))) (x12 (not (= x128 x129))) (x83 (not (= x119 x39))) (x34 (not (= x20 x119))) (x64 (not (= x119 x114))) (x116 (not (= x132 x103))) (x1 (not (= x39 x43))) (x4 (not (= x103 x71))) (x40 (not (= x87 x119))) (x157 (not (= x143 x3))) (x118 (not (= x139 x119))) (x44 (not (= x3 x103))) (x46 (not (= x143 x53))) (x65 (not (= x119 x74))) (x89 (not (= x143 x35))) (x47 (not (= x129 x126))) (x81 (not (= x128 x43))) (x76 (not (= x43 x132))) (x42 (not (= x128 x143))) (x54 (not (= x32 x143))) (x149 (not (= x153 x119))) (x151 (not (= x103 x124))) (x94 (not (= x114 x129))) (x52 (not (= x39 x143))) (x91 (not (= x43 x114))) (x99 (not (= x71 x143))) (x127 (not (= x43 x20))) (x146 (not (= x80 x103))) (x63 (not (= x126 x119))) (x130 (not (= x129 x20))) (x14 (not (= x129 x158))) (x154 (not (= x119 x144))) (x145 (not (= x103 x53))) (x117 (not (= x143 x124))) (x19 (not (= x139 x103))) (x67 (not (= x129 x35))) (x2 (not (= x143 x74))) (x138 (not (= x139 x43))) (x106 (not (= x129 x74))) (x150 (not (= x3 x119))) (x8 (not (= x143 x158))) (x48 (not (= x129 x7))) (x10 (not (= x129 x90))) (x6 (not (= x103 x153))) (x31 (not (= x158 x103))) (x140 (not (= x119 x71))) (x86 (not (= x114 x103))) (x13 (not (= x119 x109)))) (or (and (and (and (or x38 x31) (and (or x151 x44) (and (or x156 x84) (or x107 x116)))) (or x121 x121)) (and (and (and (and (or x86 x146) (and (and (or x4 x69) (or x134 x15)) (or x145 x145))) (or x151 x44)) (and (and (or x156 x84) (and (and (and (or x135 x135) (or x105 x66)) (or x4 x69)) (or x22 x24))) (and (or x107 x116) (and (or x19 x41) (and (and (or x66 x105) (or x57 x57)) (or x15 x134)))))) (and (or x38 x31) (and (or x6 x6) (and (and (or x19 x41) (or x24 x22)) (or x146 x86)))))) (or (or (or (and (and (and (or x14 x5) (and (and (or x111 x94) (and (or x113 x100) (or x62 x130))) (or x33 x33))) (and (and (and (or x47 x23) (and (and (and (or x30 x30) (or x155 x106)) (or x73 x12)) (or x130 x62))) (and (and (and (or x48 x96) (and (or x10 x10) (or x106 x155))) (or x100 x113)) (or x17 x67))) (and (and (or x111 x94) (and (and (or x48 x96) (or x73 x12)) (or x26 x26))) (or x98 x50)))) (and (or x18 x18) (and (and (or x98 x50) (and (or x23 x47) (or x17 x67))) (or x14 x5)))) (and (and (and (and (and (and (or x56 x54) (and (and (or x45 x45) (or x78 x2)) (or x42 x99))) (or x29 x159)) (and (and (and (and (or x55 x55) (or x2 x78)) (or x93 x82)) (or x102 x122)) (or x59 x89))) (and (or x117 x157) (and (and (or x46 x46) (and (or x99 x42) (or x93 x82))) (or x9 x123)))) (and (or x8 x52) (and (and (or x9 x123) (and (or x102 x122) (or x56 x54))) (or x133 x133)))) (and (or x92 x92) (and (and (or x117 x157) (and (or x59 x89) (or x159 x29))) (or x8 x52))))) (and (and (and (or x1 x137) (and (or x104 x21) (and (or x77 x152) (or x76 x85)))) (or x88 x88)) (and (and (and (or x104 x21) (and (and (and (or x28 x49) (or x16 x81)) (or x25 x25)) (or x91 x131))) (and (and (or x152 x77) (and (and (or x81 x16) (and (or x70 x61) (or x141 x141))) (or x136 x127))) (and (or x85 x76) (and (or x138 x60) (and (and (or x101 x101) (or x70 x61)) (or x28 x49)))))) (and (or x1 x137) (and (and (and (or x136 x127) (or x138 x60)) (or x131 x91)) (or x97 x97)))))) (and (and (and (or x83 x108) (and (or x149 x149) (and (or x64 x125) (and (or x118 x154) (or x75 x34))))) (and (and (and (and (or x154 x118) (and (and (or x13 x65) (or x58 x58)) (or x147 x110))) (or x120 x68)) (and (and (or x34 x75) (and (and (or x65 x13) (or x11 x11)) (or x140 x27))) (or x40 x63))) (and (or x142 x150) (and (or x125 x64) (and (or x95 x95) (and (or x27 x140) (or x110 x147))))))) (and (and (and (or x150 x142) (and (or x120 x68) (or x63 x40))) (or x108 x83)) (or x79 x79))))))))
(assert (let ((x98 (x112 x143 x103)) (x45 (x112 x103 x143)) (x28 (x112 x103 x119)) (x63 (x112 x103 x103)) (x73 (x112 x129 x119)) (x12 (x112 x129 x103)) (x35 (x112 x43 x43)) (x26 (x112 x43 x129)) (x106 (x112 x129 x143)) (x67 (x112 x143 x43)) (x155 (x112 x129 x129)) (x50 (x112 x143 x119)) (x10 (x112 x129 x43)) (x130 (x112 x119 x129)) (x70 (x112 x119 x119)) (x61 (x112 x119 x103)) (x53 (x112 x119 x43)) (x46 (x112 x103 x43)) (x99 (x112 x43 x103)) (x96 (x112 x143 x129)) (x62 (x112 x103 x129)) (x115 (x112 x119 x143)) (x17 (x112 x143 x143)) (x132 (x112 x43 x119)) (x18 (x112 x43 x143))) (let ((x20 (= x119 x17)) (x65 (= x103 x132)) (x123 (= x119 x35)) (x87 (= x103 x106)) (x33 (= x106 x129)) (x156 (= x62 x103)) (x57 (= x98 x43)) (x37 (= x129 x67)) (x114 (= x26 x43)) (x59 (= x115 x129)) (x19 (= x98 x119)) (x83 (= x143 x63)) (x154 (= x129 x61)) (x4 (= x99 x43)) (x72 (= x130 x143)) (x9 (= x119 x67)) (x21 (= x119 x132)) (x22 (= x119 x46)) (x58 (= x103 x70)) (x69 (= x43 x61)) (x49 (= x143 x70)) (x82 (= x143 x35)) (x13 (= x103 x50)) (x146 (= x119 x99)) (x93 (= x67 x143)) (x81 (= x132 x143)) (x40 (= x143 x28)) (x120 (= x143 x98)) (x138 (= x50 x43)) (x14 (= x17 x143)) (x117 (= x73 x129)) (x75 (= x99 x129)) (x128 (= x43 x17)) (x85 (= x50 x119)) (x152 (= x115 x119)) (x41 (= x12 x119)) (x133 (= x18 x103)) (x89 (= x129 x53)) (x55 (= x10 x129)) (x149 (= x143 x46)) (x52 (= x132 x129)) (x150 (= x61 x143)) (x30 (= x129 x155)) (x64 (= x45 x143)) (x31 (= x61 x103)) (x68 (= x12 x143)) (x118 (= x129 x63)) (x2 (= x129 x26)) (x122 (= x119 x18)) (x84 (= x45 x103)) (x39 (= x67 x103)) (x142 (= x143 x99)) (x3 (= x43 x10)) (x159 (= x35 x103)) (x136 (= x43 x53)) (x91 (= x70 x43)) (x104 (= x119 x70)) (x94 (= x96 x129)) (x76 (= x119 x73)) (x131 (= x132 x43)) (x23 (= x17 x129)) (x110 (= x46 x129)) (x124 (= x67 x43)) (x125 (= x62 x143)) (x90 (= x18 x129)) (x109 (= x106 x43)) (x8 (= x129 x70)) (x127 (= x115 x43)) (x113 (= x155 x43)) (x44 (= x98 x103)) (x158 (= x10 x103)) (x6 (= x119 x63)) (x100 (= x119 x155)) (x60 (= x73 x43)) (x140 (= x129 x62)) (x97 (= x130 x119)) (x79 (= x43 x45)) (x147 (= x28 x129)) (x5 (= x143 x106)) (x157 (= x129 x50)) (x92 (= x115 x143)) (x77 (= x119 x53)) (x74 (= x43 x96)) (x25 (= x43 x130)) (x145 (= x45 x119)) (x88 (= x53 x103)) (x111 (= x103 x155)) (x27 (= x129 x45)) (x1 (= x103 x130)) (x66 (= x28 x43)) (x38 (= x103 x99)) (x15 (= x119 x62)) (x144 (= x143 x18)) (x105 (= x43 x12)) (x139 (= x26 x143)) (x7 (= x35 x129)) (x151 (= x12 x103)) (x42 (= x10 x143)) (x54 (= x26 x119)) (x48 (= x143 x155)) (x34 (= x98 x129)) (x102 (= x10 x119)) (x126 (= x103 x96)) (x95 (= x129 x12)) (x56 (= x35 x43)) (x137 (= x103 x115)) (x141 (= x143 x53)) (x101 (= x73 x143)) (x24 (= x28 x119)) (x121 (= x103 x63)) (x107 (= x103 x28)) (x134 (= x63 x43)) (x71 (= x119 x96)) (x108 (= x43 x62)) (x135 (= x43 x46)) (x86 (= x119 x61)) (x47 (= x143 x96)) (x80 (= x18 x43)) (x78 (= x17 x103)) (x116 (= x103 x46)) (x153 (= x26 x103)) (x29 (= x129 x130)) (x11 (= x73 x103)) (x16 (= x50 x143)) (x32 (= x106 x119))) (and (and (and (and (and (and (and (or (or (or x54 (or x71 x100)) x97) x15) (or (or (or x102 (or x32 x100)) x76) x41)) (and (and (or (or x60 (or (or x109 x113) x3)) x105) (or (or x25 (or (or x113 x74) x114)) x108)) (and (and (or x68 (or x101 (or (or x48 x5) x42))) (or (or (or (or x48 x47) x139) x72) x125)) (and (or (or x29 (or x2 (or x94 x30))) x140) (or (or x117 (or (or x33 x30) x55)) x95))))) (and (or (or (or x158 (or x111 x87)) x11) x151) (or (or x1 (or (or x126 x111) x153)) x156))) (and (and (or (or x13 (or x39 (or x78 x126))) x44) (or (or (or (or x87 x78) x133) x137) x84)) (and (and (and (or (or x127 (or (or x128 x109) x80)) x79) (or (or (or (or x128 x74) x124) x138) x57)) (and (and (or (or (or x90 (or x33 x23)) x59) x27) (or (or (or x37 (or x94 x23)) x157) x34)) (and (or x120 (or x16 (or x93 (or x14 x47)))) (or x64 (or (or x144 (or x14 x5)) x92))))) (and (or x19 (or x85 (or (or x71 x20) x9))) (or x145 (or (or (or x20 x32) x122) x152)))))) (and (and (or (or (or x159 (or x39 x158)) x88) x116) (or (or x65 (or (or x133 x153) x159)) x38)) (and (and (and (and (or (or x141 (or (or x42 x93) x82)) x149) (or (or (or x82 (or x139 x144)) x81) x142)) (and (or x110 (or (or (or x55 x37) x7) x89)) (or (or (or (or x90 x2) x7) x52) x75))) (and (or x4 (or (or (or x80 x114) x56) x131)) (or (or x136 (or (or x3 x124) x56)) x135))) (and (or (or (or (or x102 x9) x123) x77) x22) (or (or (or x123 (or x54 x122)) x21) x146))))) (and (and (or (or (or x88 (or x137 x1)) x58) x31) (or x107 (or x58 (or (or x11 x13) x65)))) (and (and (and (or x69 (or x91 (or x136 (or x127 x25)))) (or (or (or x131 (or x60 x138)) x91) x66)) (and (and (or x150 (or x49 (or (or x72 x92) x141))) (or (or x49 (or x81 (or x16 x101))) x40)) (and (or x154 (or x8 (or x89 (or x29 x59)))) (or x147 (or (or x52 (or x117 x157)) x8))))) (and (or (or (or x77 (or x152 x97)) x104) x86) (or x24 (or x104 (or x21 (or x76 x85)))))))) (and (and (or x121 (or (or (or x44 x151) x38) x31)) (or x121 (or x107 (or (or x156 x84) x116)))) (and (and (or (or (or (or x15 x145) x22) x24) x6) (or x6 (or x86 (or (or x41 x19) x146)))) (and (and (or x134 (or (or (or x57 x105) x4) x69)) (or (or (or (or x79 x108) x135) x66) x134)) (and (and (or x118 (or (or (or x95 x34) x75) x154)) (or x118 (or (or x110 (or x27 x140)) x147))) (and (or (or (or (or x120 x68) x142) x150) x83) (or (or x40 (or x149 (or x125 x64))) x83))))))))))
(assert (let ((x10 (x112 x119 x119)) (x73 (x112 x103 x103)) (x106 (x112 x43 x43)) (x155 (x112 x143 x143)) (x30 (x112 x129 x129))) (or (and (not (= x103 x73)) (and (not (= x10 x103)) (and (and (not (= x30 x103)) (not (= x103 x155))) (not (= x103 x106))))) (or (or (and (not (= x43 x73)) (and (and (and (not (= x43 x30)) (not (= x155 x43))) (not (= x43 x106))) (not (= x43 x10)))) (or (and (not (= x73 x143)) (and (and (not (= x106 x143)) (and (not (= x155 x143)) (not (= x143 x30)))) (not (= x10 x143)))) (and (and (and (not (= x129 x106)) (and (not (= x129 x30)) (not (= x155 x129)))) (not (= x10 x129))) (not (= x129 x73))))) (and (not (= x119 x73)) (and (not (= x10 x119)) (and (not (= x119 x106)) (and (not (= x30 x119)) (not (= x119 x155))))))))))
(assert (or (and (not (= (x112 x103 x103) x103)) (and (and (not (= x43 (x112 x43 x103))) (and (not (= x129 (x112 x129 x103))) (not (= (x112 x143 x103) x143)))) (not (= x119 (x112 x119 x103))))) (or (or (and (and (and (and (not (= (x112 x143 x43) x143)) (not (= (x112 x129 x43) x129))) (not (= x43 (x112 x43 x43)))) (not (= (x112 x119 x43) x119))) (not (= (x112 x103 x43) x103))) (or (and (and (and (not (= (x112 x43 x129) x43)) (and (not (= x143 (x112 x143 x129))) (not (= x129 (x112 x129 x129))))) (not (= x119 (x112 x119 x129)))) (not (= x103 (x112 x103 x129)))) (and (not (= (x112 x103 x143) x103)) (and (and (not (= (x112 x43 x143) x43)) (and (not (= (x112 x129 x143) x129)) (not (= (x112 x143 x143) x143)))) (not (= x119 (x112 x119 x143))))))) (and (not (= x103 (x112 x103 x119))) (and (and (and (not (= (x112 x143 x119) x143)) (not (= (x112 x129 x119) x129))) (not (= x43 (x112 x43 x119)))) (not (= (x112 x119 x119) x119)))))))
(assert (and (or (or (or (= (x112 (x112 x103 x43) x103) x43) (or (= x143 (x112 (x112 x103 x143) x103)) (= (x112 (x112 x103 x129) x103) x129))) (= (x112 (x112 x103 x119) x103) x119)) (= (x112 (x112 x103 x103) x103) x103)) (and (and (or (or (or (or (= x129 (x112 (x112 x43 x129) x43)) (= (x112 (x112 x43 x143) x43) x143)) (= (x112 (x112 x43 x43) x43) x43)) (= x119 (x112 (x112 x43 x119) x43))) (= (x112 (x112 x43 x103) x43) x103)) (and (or (or (= (x112 (x112 x129 x119) x129) x119) (or (= (x112 (x112 x129 x43) x129) x43) (or (= x129 (x112 (x112 x129 x129) x129)) (= (x112 (x112 x129 x143) x129) x143)))) (= x103 (x112 (x112 x129 x103) x129))) (or (or (or (or (= x143 (x112 (x112 x143 x143) x143)) (= x129 (x112 (x112 x143 x129) x143))) (= x43 (x112 (x112 x143 x43) x143))) (= x119 (x112 (x112 x143 x119) x143))) (= x103 (x112 (x112 x143 x103) x143))))) (or (= (x112 (x112 x119 x103) x119) x103) (or (= (x112 (x112 x119 x119) x119) x119) (or (= x43 (x112 (x112 x119 x43) x119)) (or (= (x112 (x112 x119 x143) x119) x143) (= x129 (x112 (x112 x119 x129) x119)))))))))
(assert (and (and (and (not (= x43 (x112 x43 x43))) (and (not (= (x112 x129 x129) x129)) (not (= x143 (x112 x143 x143))))) (not (= (x112 x119 x119) x119))) (not (= x103 (x112 x103 x103)))))
(assert (let ((x155 (x112 x143 x143)) (x106 (x112 x43 x43)) (x10 (x112 x119 x119)) (x73 (x112 x103 x103)) (x30 (x112 x129 x129))) (and (not (= (x112 x73 x73) x103)) (and (not (= (x112 x10 x10) x119)) (and (and (not (= x129 (x112 x30 x30))) (not (= x143 (x112 x155 x155)))) (not (= (x112 x106 x106) x43)))))))
(assert (not (and (and (and (and (= x103 (x112 x103 x143)) (and (= (x112 x103 x129) x43) (and (and (= x129 (x112 x119 x119)) (and (and (and (= x103 (x112 x119 x129)) (and (= x103 (x112 x43 x103)) (and (= (x112 x43 x119) x43) (and (= (x112 x43 x43) x129) (and (and (and (and (and (= x143 (x112 x143 x43)) (and (and (and (and (and (= (x112 x129 x43) x103) (and (= x143 (x112 x129 x129)) (= x129 (x112 x129 x143)))) (= x119 (x112 x129 x119))) (= (x112 x129 x103) x43)) (= x129 (x112 x143 x129))) (= (x112 x143 x143) x43))) (= x103 (x112 x143 x119))) (= x119 (x112 x143 x103))) (= x119 (x112 x43 x129))) (= (x112 x43 x143) x143)))))) (= x119 (x112 x119 x143))) (= x43 (x112 x119 x43)))) (= (x112 x119 x103) x143)))) (= (x112 x103 x43) x119)) (= (x112 x103 x119) x143)) (= x129 (x112 x103 x103)))))
(assert (and (and (or (= (x112 (x112 x103 x119) x103) x119) (or (or (or (= (x112 (x112 x143 x119) x143) x119) (= x119 (x112 (x112 x129 x119) x129))) (= x119 (x112 (x112 x43 x119) x43))) (= x119 (x112 (x112 x119 x119) x119)))) (and (and (or (or (= (x112 (x112 x119 x129) x119) x129) (or (= x129 (x112 (x112 x43 x129) x43)) (or (= x129 (x112 (x112 x129 x129) x129)) (= (x112 (x112 x143 x129) x143) x129)))) (= (x112 (x112 x103 x129) x103) x129)) (or (= (x112 (x112 x103 x143) x103) x143) (or (= (x112 (x112 x119 x143) x119) x143) (or (= (x112 (x112 x43 x143) x43) x143) (or (= x143 (x112 (x112 x143 x143) x143)) (= x143 (x112 (x112 x129 x143) x129))))))) (or (or (or (or (= x43 (x112 (x112 x143 x43) x143)) (= x43 (x112 (x112 x129 x43) x129))) (= (x112 (x112 x43 x43) x43) x43)) (= x43 (x112 (x112 x119 x43) x119))) (= (x112 (x112 x103 x43) x103) x43)))) (or (or (or (or (= x103 (x112 (x112 x143 x103) x143)) (= (x112 (x112 x129 x103) x129) x103)) (= (x112 (x112 x43 x103) x43) x103)) (= x103 (x112 (x112 x119 x103) x119))) (= x103 (x112 (x112 x103 x103) x103)))))
(assert (and (and (and (= (x112 x119 x103) x143) (= x129 (x112 x103 x103))) (= (x112 x103 x129) x43)) (= (x112 x103 x43) x119)))
(assert (or (or (and (not (= (x112 x119 (x112 x119 x103)) x103)) (and (and (not (= x43 (x112 x119 (x112 x119 x43)))) (and (not (= x129 (x112 x119 (x112 x119 x129)))) (not (= x143 (x112 x119 (x112 x119 x143)))))) (not (= (x112 x119 (x112 x119 x119)) x119)))) (or (or (and (not (= (x112 x143 (x112 x143 x103)) x103)) (and (not (= x119 (x112 x143 (x112 x143 x119)))) (and (not (= x43 (x112 x143 (x112 x143 x43)))) (and (not (= x129 (x112 x143 (x112 x143 x129)))) (not (= x143 (x112 x143 (x112 x143 x143)))))))) (and (not (= (x112 x129 (x112 x129 x103)) x103)) (and (not (= x119 (x112 x129 (x112 x129 x119)))) (and (and (not (= x129 (x112 x129 (x112 x129 x129)))) (not (= (x112 x129 (x112 x129 x143)) x143))) (not (= (x112 x129 (x112 x129 x43)) x43)))))) (and (not (= x103 (x112 x43 (x112 x43 x103)))) (and (not (= (x112 x43 (x112 x43 x119)) x119)) (and (not (= x43 (x112 x43 (x112 x43 x43)))) (and (not (= x143 (x112 x43 (x112 x43 x143)))) (not (= (x112 x43 (x112 x43 x129)) x129)))))))) (and (not (= x103 (x112 x103 (x112 x103 x103)))) (and (and (and (not (= (x112 x103 (x112 x103 x143)) x143)) (not (= (x112 x103 (x112 x103 x129)) x129))) (not (= (x112 x103 (x112 x103 x43)) x43))) (not (= (x112 x103 (x112 x103 x119)) x119))))))
(assert (let ((x62 (x112 x129 x43)) (x106 (x112 x43 x129)) (x5 (x112 x43 x103)) (x67 (x112 x103 x119)) (x26 (x112 x119 x143)) (x111 (x112 x119 x43)) (x96 (x112 x43 x143)) (x17 (x112 x119 x119)) (x14 (x112 x119 x103)) (x18 (x112 x103 x103)) (x10 (x112 x119 x129)) (x98 (x112 x143 x103)) (x30 (x112 x129 x129)) (x33 (x112 x129 x119)) (x130 (x112 x103 x143)) (x155 (x112 x143 x129)) (x50 (x112 x129 x103)) (x47 (x112 x43 x119)) (x23 (x112 x143 x119)) (x73 (x112 x103 x129)) (x12 (x112 x129 x143)) (x48 (x112 x143 x143)) (x113 (x112 x143 x43)) (x94 (x112 x103 x43)) (x100 (x112 x43 x43))) (and (and (and (and (and (and (not (= x130 x18)) (and (and (not (= x94 x130)) (and (and (and (not (= x94 x73)) (not (= x73 x130))) (not (= x67 x73))) (not (= x73 x18)))) (not (= x67 x130)))) (not (= x94 x67))) (not (= x94 x18))) (not (= x18 x67))) (and (and (and (and (not (= x111 x17)) (and (not (= x26 x14)) (and (not (= x26 x17)) (and (not (= x26 x111)) (and (and (and (not (= x10 x111)) (not (= x10 x26))) (not (= x10 x17))) (not (= x10 x14))))))) (not (= x14 x111))) (not (= x17 x14))) (and (and (and (and (and (not (= x62 x33)) (and (not (= x12 x50)) (and (and (and (not (= x30 x50)) (and (and (not (= x30 x62)) (not (= x12 x30))) (not (= x33 x30)))) (not (= x62 x12))) (not (= x12 x33))))) (not (= x50 x62))) (not (= x33 x50))) (and (not (= x98 x23)) (and (and (and (and (not (= x48 x23)) (and (not (= x113 x48)) (and (not (= x98 x155)) (and (not (= x23 x155)) (and (not (= x113 x155)) (not (= x48 x155))))))) (not (= x48 x98))) (not (= x113 x23))) (not (= x98 x113))))) (and (and (and (not (= x47 x100)) (and (and (and (not (= x96 x100)) (and (not (= x106 x5)) (and (not (= x47 x106)) (and (not (= x96 x106)) (not (= x100 x106)))))) (not (= x96 x47))) (not (= x96 x5)))) (not (= x5 x100))) (not (= x5 x47)))))) (and (and (and (not (= x67 x17)) (and (not (= x47 x67)) (and (and (and (and (and (not (= x33 x67)) (and (not (= x33 x17)) (and (not (= x33 x47)) (not (= x33 x23))))) (not (= x23 x47))) (not (= x23 x17))) (not (= x67 x23))) (not (= x17 x47))))) (and (and (and (and (and (and (not (= x130 x48)) (and (not (= x48 x26)) (and (not (= x48 x96)) (and (not (= x12 x130)) (and (and (not (= x48 x12)) (not (= x12 x96))) (not (= x26 x12))))))) (not (= x26 x96))) (not (= x130 x96))) (not (= x130 x26))) (and (and (not (= x106 x73)) (and (and (and (not (= x155 x10)) (and (and (and (and (not (= x106 x30)) (not (= x30 x155))) (not (= x30 x10))) (not (= x73 x30))) (not (= x155 x106)))) (not (= x155 x73))) (not (= x106 x10)))) (not (= x73 x10)))) (and (not (= x94 x111)) (and (and (not (= x111 x100)) (and (and (and (not (= x100 x113)) (and (and (and (not (= x113 x62)) (not (= x62 x100))) (not (= x111 x62))) (not (= x62 x94)))) (not (= x111 x113))) (not (= x94 x113)))) (not (= x100 x94)))))) (and (not (= x18 x14)) (and (and (not (= x14 x5)) (and (and (and (and (and (and (not (= x50 x5)) (not (= x50 x98))) (not (= x14 x50))) (not (= x50 x18))) (not (= x5 x98))) (not (= x14 x98))) (not (= x18 x98)))) (not (= x5 x18))))))))
(check-sat)
(exit)
